p cnf 775 2915
-1 -2 -3 0
-4 -5 -6 0
-7 -8 -9 0
-10 -11 -12 0
-13 -14 -15 0
-16 -17 -18 0
-19 -20 -21 0
-22 -23 -24 0
-25 -26 -27 0
-28 -29 -30 0
-3 -31 -32 0
-6 -33 -34 0
-9 -35 -36 0
-12 -37 -38 0
-15 -39 -40 0
-18 -41 -42 0
-21 -43 -44 0
-24 -45 -46 0
-27 -47 -48 0
-30 -49 -50 0
-32 -51 -52 0
-34 -53 -54 0
-36 -55 -56 0
-38 -57 -58 0
-40 -59 -60 0
-1 -2 -61 0
-4 -5 -62 0
-7 -8 -63 0
-10 -11 -64 0
-13 -14 -65 0
-16 -17 -66 0
-19 -20 -67 0
-22 -23 -68 0
-25 -26 -69 0
-28 -29 -70 0
-3 -31 -71 0
-6 -33 -72 0
-9 -35 -73 0
-12 -37 -74 0
-15 -39 -75 0
-18 -41 -76 0
-21 -43 -77 0
-24 -45 -78 0
-27 -47 -79 0
-30 -49 -80 0
-32 -51 -81 0
-34 -53 -82 0
-36 -55 -83 0
-38 -57 -84 0
-40 -59 -85 0
-86 -16 -17 0
-87 -19 -20 0
-88 -22 -23 0
-89 -25 -26 0
-90 -28 -29 0
-2 -3 -31 0
-5 -6 -33 0
-8 -9 -35 0
-11 -12 -37 0
-14 -15 -39 0
-17 -18 -41 0
-20 -21 -43 0
-23 -24 -45 0
-26 -27 -47 0
-29 -30 -49 0
-31 -32 -51 0
-33 -34 -53 0
-35 -36 -55 0
-37 -38 -57 0
-39 -40 -59 0
-41 -42 -91 0
-43 -44 -92 0
-45 -46 -93 0
-47 -48 -94 0
-49 -50 -95 0
-86 -16 -61 0
-87 -19 -62 0
-88 -22 -63 0
-89 -25 -64 0
-90 -28 -65 0
-2 -3 -66 0
-5 -6 -67 0
-8 -9 -68 0
-11 -12 -69 0
-14 -15 -70 0
-17 -18 -71 0
-20 -21 -72 0
-23 -24 -73 0
-26 -27 -74 0
-29 -30 -75 0
-31 -32 -76 0
-33 -34 -77 0
-35 -36 -78 0
-37 -38 -79 0
-39 -40 -80 0
-41 -42 -81 0
-43 -44 -82 0
-45 -46 -83 0
-47 -48 -84 0
-49 -50 -85 0
-86 -96 -3 0
-87 -97 -6 0
-88 -98 -9 0
-89 -99 -12 0
-90 -100 -15 0
-2 -61 -18 0
-5 -62 -21 0
-8 -63 -24 0
-11 -64 -27 0
-14 -65 -30 0
-17 -66 -32 0
-20 -67 -34 0
-23 -68 -36 0
-26 -69 -38 0
-29 -70 -40 0
-31 -71 -42 0
-33 -72 -44 0
-35 -73 -46 0
-37 -74 -48 0
-39 -75 -50 0
-41 -76 -52 0
-43 -77 -54 0
-45 -78 -56 0
-47 -79 -58 0
-49 -80 -60 0
-101 -96 -3 0
-102 -97 -6 0
-103 -98 -9 0
-104 -99 -12 0
-105 -100 -15 0
-106 -61 -18 0
-107 -62 -21 0
-108 -63 -24 0
-109 -64 -27 0
-110 -65 -30 0
-111 -66 -32 0
-112 -67 -34 0
-113 -68 -36 0
-114 -69 -38 0
-115 -70 -40 0
-116 -71 -42 0
-117 -72 -44 0
-118 -73 -46 0
-119 -74 -48 0
-120 -75 -50 0
-121 -76 -52 0
-122 -77 -54 0
-123 -78 -56 0
-124 -79 -58 0
-125 -80 -60 0
-126 -16 -17 0
-127 -19 -20 0
-128 -22 -23 0
-129 -25 -26 0
-130 -28 -29 0
-96 -3 -31 0
-97 -6 -33 0
-98 -9 -35 0
-99 -12 -37 0
-100 -15 -39 0
-61 -18 -41 0
-62 -21 -43 0
-63 -24 -45 0
-64 -27 -47 0
-65 -30 -49 0
-66 -32 -51 0
-67 -34 -53 0
-68 -36 -55 0
-69 -38 -57 0
-70 -40 -59 0
-71 -42 -91 0
-72 -44 -92 0
-73 -46 -93 0
-74 -48 -94 0
-75 -50 -95 0
131 132 133 134 135 136 137 138 139 140 141 142 143 144 145 146 147 148 149 150 151 152 153 154 155 156 157 158 159 160 0
161 162 163 164 165 166 167 168 169 170 171 172 173 174 175 176 177 178 179 180 181 182 183 184 185 186 187 188 189 190 0
191 192 193 194 195 196 197 198 199 200 201 202 203 204 205 206 207 208 209 210 211 212 213 214 215 216 217 218 219 220 0
221 222 223 224 225 226 227 228 229 230 231 232 233 234 235 236 237 238 239 240 241 242 243 244 245 246 247 248 249 250 0
251 252 253 254 255 256 257 258 259 260 261 262 263 264 265 266 267 268 269 270 271 272 273 274 275 276 277 278 279 280 0
281 282 283 284 285 286 287 288 289 290 291 292 293 294 295 296 297 298 299 300 301 302 303 304 305 306 307 308 309 310 0
311 312 313 314 315 316 317 318 319 320 321 322 323 324 325 326 327 328 329 330 331 332 333 334 335 336 337 338 339 340 0
341 342 343 344 345 346 347 348 349 350 351 352 353 354 355 356 357 358 359 360 361 362 363 364 365 366 367 368 369 370 0
371 372 373 374 375 376 377 378 379 380 381 382 383 384 385 386 387 388 389 390 391 392 393 394 395 396 397 398 399 400 0
401 402 403 404 405 406 407 408 409 410 411 412 413 414 415 416 417 418 419 420 421 422 423 424 425 426 427 428 429 430 0
431 432 433 434 435 436 437 438 439 440 441 442 443 444 445 446 447 448 449 450 451 452 453 454 455 456 457 458 459 460 0
461 462 463 464 465 466 467 468 469 470 471 472 473 474 475 476 477 478 479 480 481 482 483 484 485 486 487 488 489 490 0
491 492 493 494 495 496 497 498 499 500 501 502 503 504 505 506 507 508 509 510 511 512 513 514 515 516 517 518 519 520 0
521 522 523 524 525 526 527 528 529 530 531 532 533 534 535 536 537 538 539 540 541 542 543 544 545 546 547 548 549 550 0
551 552 553 554 555 556 557 558 559 560 561 562 563 564 565 566 567 568 569 570 571 572 573 574 575 576 577 578 579 580 0
581 582 583 584 585 586 587 588 589 590 591 592 593 594 595 596 597 598 599 600 601 602 603 604 605 606 607 608 609 610 0
611 612 613 614 615 616 617 618 619 620 621 622 623 624 625 626 627 628 629 630 631 632 633 634 635 636 637 638 639 640 0
641 642 643 644 645 646 647 648 649 650 651 652 653 654 655 656 657 658 659 660 661 662 663 664 665 666 667 668 669 670 0
671 672 673 674 675 676 677 678 679 680 681 682 683 684 685 686 687 688 689 690 691 692 693 694 695 696 697 698 699 700 0
701 702 703 704 705 706 707 708 709 710 711 712 713 714 715 716 717 718 719 720 721 722 723 724 725 726 727 728 729 730 0
131 -1 -2 0
161 -1 -106 0
191 -1 -96 0
221 -1 -731 0
251 -86 -16 0
281 -86 -106 0
311 -86 -96 0
341 -86 -731 0
371 -101 -16 0
401 -101 -2 0
431 -101 -96 0
461 -101 -731 0
491 -126 -16 0
521 -126 -2 0
551 -126 -106 0
581 -126 -731 0
611 -732 -16 0
641 -732 -2 0
671 -732 -106 0
701 -732 -96 0
132 -16 -17 0
162 -16 -111 0
192 -16 -61 0
222 -16 -733 0
252 -2 -3 0
282 -2 -111 0
312 -2 -61 0
342 -2 -733 0
372 -106 -3 0
402 -106 -17 0
432 -106 -61 0
462 -106 -733 0
492 -96 -3 0
522 -96 -17 0
552 -96 -111 0
582 -96 -733 0
612 -731 -3 0
642 -731 -17 0
672 -731 -111 0
702 -731 -61 0
133 -3 -31 0
163 -3 -116 0
193 -3 -66 0
223 -3 -734 0
253 -17 -18 0
283 -17 -116 0
313 -17 -66 0
343 -17 -734 0
373 -111 -18 0
403 -111 -31 0
433 -111 -66 0
463 -111 -734 0
493 -61 -18 0
523 -61 -31 0
553 -61 -116 0
583 -61 -734 0
613 -733 -18 0
643 -733 -31 0
673 -733 -116 0
703 -733 -66 0
134 -18 -41 0
164 -18 -121 0
194 -18 -71 0
224 -18 -735 0
254 -31 -32 0
284 -31 -121 0
314 -31 -71 0
344 -31 -735 0
374 -116 -32 0
404 -116 -41 0
434 -116 -71 0
464 -116 -735 0
494 -66 -32 0
524 -66 -41 0
554 -66 -121 0
584 -66 -735 0
614 -734 -32 0
644 -734 -41 0
674 -734 -121 0
704 -734 -71 0
135 -32 -51 0
165 -32 -736 0
195 -32 -76 0
225 -32 -737 0
255 -41 -42 0
285 -41 -736 0
315 -41 -76 0
345 -41 -737 0
375 -121 -42 0
405 -121 -51 0
435 -121 -76 0
465 -121 -737 0
495 -71 -42 0
525 -71 -51 0
555 -71 -736 0
585 -71 -737 0
615 -735 -42 0
645 -735 -51 0
675 -735 -736 0
705 -735 -76 0
136 -42 -91 0
166 -42 -738 0
196 -42 -81 0
226 -42 -739 0
256 -51 -52 0
286 -51 -738 0
316 -51 -81 0
346 -51 -739 0
376 -736 -52 0
406 -736 -91 0
436 -736 -81 0
466 -736 -739 0
496 -76 -52 0
526 -76 -91 0
556 -76 -738 0
586 -76 -739 0
616 -737 -52 0
646 -737 -91 0
676 -737 -738 0
706 -737 -81 0
137 -4 -5 0
167 -4 -107 0
197 -4 -97 0
227 -4 -740 0
257 -87 -19 0
287 -87 -107 0
317 -87 -97 0
347 -87 -740 0
377 -102 -19 0
407 -102 -5 0
437 -102 -97 0
467 -102 -740 0
497 -127 -19 0
527 -127 -5 0
557 -127 -107 0
587 -127 -740 0
617 -741 -19 0
647 -741 -5 0
677 -741 -107 0
707 -741 -97 0
138 -19 -20 0
168 -19 -112 0
198 -19 -62 0
228 -19 -742 0
258 -5 -6 0
288 -5 -112 0
318 -5 -62 0
348 -5 -742 0
378 -107 -6 0
408 -107 -20 0
438 -107 -62 0
468 -107 -742 0
498 -97 -6 0
528 -97 -20 0
558 -97 -112 0
588 -97 -742 0
618 -740 -6 0
648 -740 -20 0
678 -740 -112 0
708 -740 -62 0
139 -6 -33 0
169 -6 -117 0
199 -6 -67 0
229 -6 -743 0
259 -20 -21 0
289 -20 -117 0
319 -20 -67 0
349 -20 -743 0
379 -112 -21 0
409 -112 -33 0
439 -112 -67 0
469 -112 -743 0
499 -62 -21 0
529 -62 -33 0
559 -62 -117 0
589 -62 -743 0
619 -742 -21 0
649 -742 -33 0
679 -742 -117 0
709 -742 -67 0
140 -21 -43 0
170 -21 -122 0
200 -21 -72 0
230 -21 -744 0
260 -33 -34 0
290 -33 -122 0
320 -33 -72 0
350 -33 -744 0
380 -117 -34 0
410 -117 -43 0
440 -117 -72 0
470 -117 -744 0
500 -67 -34 0
530 -67 -43 0
560 -67 -122 0
590 -67 -744 0
620 -743 -34 0
650 -743 -43 0
680 -743 -122 0
710 -743 -72 0
141 -34 -53 0
171 -34 -745 0
201 -34 -77 0
231 -34 -746 0
261 -43 -44 0
291 -43 -745 0
321 -43 -77 0
351 -43 -746 0
381 -122 -44 0
411 -122 -53 0
441 -122 -77 0
471 -122 -746 0
501 -72 -44 0
531 -72 -53 0
561 -72 -745 0
591 -72 -746 0
621 -744 -44 0
651 -744 -53 0
681 -744 -745 0
711 -744 -77 0
142 -44 -92 0
172 -44 -747 0
202 -44 -82 0
232 -44 -748 0
262 -53 -54 0
292 -53 -747 0
322 -53 -82 0
352 -53 -748 0
382 -745 -54 0
412 -745 -92 0
442 -745 -82 0
472 -745 -748 0
502 -77 -54 0
532 -77 -92 0
562 -77 -747 0
592 -77 -748 0
622 -746 -54 0
652 -746 -92 0
682 -746 -747 0
712 -746 -82 0
143 -7 -8 0
173 -7 -108 0
203 -7 -98 0
233 -7 -749 0
263 -88 -22 0
293 -88 -108 0
323 -88 -98 0
353 -88 -749 0
383 -103 -22 0
413 -103 -8 0
443 -103 -98 0
473 -103 -749 0
503 -128 -22 0
533 -128 -8 0
563 -128 -108 0
593 -128 -749 0
623 -750 -22 0
653 -750 -8 0
683 -750 -108 0
713 -750 -98 0
144 -22 -23 0
174 -22 -113 0
204 -22 -63 0
234 -22 -751 0
264 -8 -9 0
294 -8 -113 0
324 -8 -63 0
354 -8 -751 0
384 -108 -9 0
414 -108 -23 0
444 -108 -63 0
474 -108 -751 0
504 -98 -9 0
534 -98 -23 0
564 -98 -113 0
594 -98 -751 0
624 -749 -9 0
654 -749 -23 0
684 -749 -113 0
714 -749 -63 0
145 -9 -35 0
175 -9 -118 0
205 -9 -68 0
235 -9 -752 0
265 -23 -24 0
295 -23 -118 0
325 -23 -68 0
355 -23 -752 0
385 -113 -24 0
415 -113 -35 0
445 -113 -68 0
475 -113 -752 0
505 -63 -24 0
535 -63 -35 0
565 -63 -118 0
595 -63 -752 0
625 -751 -24 0
655 -751 -35 0
685 -751 -118 0
715 -751 -68 0
146 -24 -45 0
176 -24 -123 0
206 -24 -73 0
236 -24 -753 0
266 -35 -36 0
296 -35 -123 0
326 -35 -73 0
356 -35 -753 0
386 -118 -36 0
416 -118 -45 0
446 -118 -73 0
476 -118 -753 0
506 -68 -36 0
536 -68 -45 0
566 -68 -123 0
596 -68 -753 0
626 -752 -36 0
656 -752 -45 0
686 -752 -123 0
716 -752 -73 0
147 -36 -55 0
177 -36 -754 0
207 -36 -78 0
237 -36 -755 0
267 -45 -46 0
297 -45 -754 0
327 -45 -78 0
357 -45 -755 0
387 -123 -46 0
417 -123 -55 0
447 -123 -78 0
477 -123 -755 0
507 -73 -46 0
537 -73 -55 0
567 -73 -754 0
597 -73 -755 0
627 -753 -46 0
657 -753 -55 0
687 -753 -754 0
717 -753 -78 0
148 -46 -93 0
178 -46 -756 0
208 -46 -83 0
238 -46 -757 0
268 -55 -56 0
298 -55 -756 0
328 -55 -83 0
358 -55 -757 0
388 -754 -56 0
418 -754 -93 0
448 -754 -83 0
478 -754 -757 0
508 -78 -56 0
538 -78 -93 0
568 -78 -756 0
598 -78 -757 0
628 -755 -56 0
658 -755 -93 0
688 -755 -756 0
718 -755 -83 0
149 -10 -11 0
179 -10 -109 0
209 -10 -99 0
239 -10 -758 0
269 -89 -25 0
299 -89 -109 0
329 -89 -99 0
359 -89 -758 0
389 -104 -25 0
419 -104 -11 0
449 -104 -99 0
479 -104 -758 0
509 -129 -25 0
539 -129 -11 0
569 -129 -109 0
599 -129 -758 0
629 -759 -25 0
659 -759 -11 0
689 -759 -109 0
719 -759 -99 0
150 -25 -26 0
180 -25 -114 0
210 -25 -64 0
240 -25 -760 0
270 -11 -12 0
300 -11 -114 0
330 -11 -64 0
360 -11 -760 0
390 -109 -12 0
420 -109 -26 0
450 -109 -64 0
480 -109 -760 0
510 -99 -12 0
540 -99 -26 0
570 -99 -114 0
600 -99 -760 0
630 -758 -12 0
660 -758 -26 0
690 -758 -114 0
720 -758 -64 0
151 -12 -37 0
181 -12 -119 0
211 -12 -69 0
241 -12 -761 0
271 -26 -27 0
301 -26 -119 0
331 -26 -69 0
361 -26 -761 0
391 -114 -27 0
421 -114 -37 0
451 -114 -69 0
481 -114 -761 0
511 -64 -27 0
541 -64 -37 0
571 -64 -119 0
601 -64 -761 0
631 -760 -27 0
661 -760 -37 0
691 -760 -119 0
721 -760 -69 0
152 -27 -47 0
182 -27 -124 0
212 -27 -74 0
242 -27 -762 0
272 -37 -38 0
302 -37 -124 0
332 -37 -74 0
362 -37 -762 0
392 -119 -38 0
422 -119 -47 0
452 -119 -74 0
482 -119 -762 0
512 -69 -38 0
542 -69 -47 0
572 -69 -124 0
602 -69 -762 0
632 -761 -38 0
662 -761 -47 0
692 -761 -124 0
722 -761 -74 0
153 -38 -57 0
183 -38 -763 0
213 -38 -79 0
243 -38 -764 0
273 -47 -48 0
303 -47 -763 0
333 -47 -79 0
363 -47 -764 0
393 -124 -48 0
423 -124 -57 0
453 -124 -79 0
483 -124 -764 0
513 -74 -48 0
543 -74 -57 0
573 -74 -763 0
603 -74 -764 0
633 -762 -48 0
663 -762 -57 0
693 -762 -763 0
723 -762 -79 0
154 -48 -94 0
184 -48 -765 0
214 -48 -84 0
244 -48 -766 0
274 -57 -58 0
304 -57 -765 0
334 -57 -84 0
364 -57 -766 0
394 -763 -58 0
424 -763 -94 0
454 -763 -84 0
484 -763 -766 0
514 -79 -58 0
544 -79 -94 0
574 -79 -765 0
604 -79 -766 0
634 -764 -58 0
664 -764 -94 0
694 -764 -765 0
724 -764 -84 0
155 -13 -14 0
185 -13 -110 0
215 -13 -100 0
245 -13 -767 0
275 -90 -28 0
305 -90 -110 0
335 -90 -100 0
365 -90 -767 0
395 -105 -28 0
425 -105 -14 0
455 -105 -100 0
485 -105 -767 0
515 -130 -28 0
545 -130 -14 0
575 -130 -110 0
605 -130 -767 0
635 -768 -28 0
665 -768 -14 0
695 -768 -110 0
725 -768 -100 0
156 -28 -29 0
186 -28 -115 0
216 -28 -65 0
246 -28 -769 0
276 -14 -15 0
306 -14 -115 0
336 -14 -65 0
366 -14 -769 0
396 -110 -15 0
426 -110 -29 0
456 -110 -65 0
486 -110 -769 0
516 -100 -15 0
546 -100 -29 0
576 -100 -115 0
606 -100 -769 0
636 -767 -15 0
666 -767 -29 0
696 -767 -115 0
726 -767 -65 0
157 -15 -39 0
187 -15 -120 0
217 -15 -70 0
247 -15 -770 0
277 -29 -30 0
307 -29 -120 0
337 -29 -70 0
367 -29 -770 0
397 -115 -30 0
427 -115 -39 0
457 -115 -70 0
487 -115 -770 0
517 -65 -30 0
547 -65 -39 0
577 -65 -120 0
607 -65 -770 0
637 -769 -30 0
667 -769 -39 0
697 -769 -120 0
727 -769 -70 0
158 -30 -49 0
188 -30 -125 0
218 -30 -75 0
248 -30 -771 0
278 -39 -40 0
308 -39 -125 0
338 -39 -75 0
368 -39 -771 0
398 -120 -40 0
428 -120 -49 0
458 -120 -75 0
488 -120 -771 0
518 -70 -40 0
548 -70 -49 0
578 -70 -125 0
608 -70 -771 0
638 -770 -40 0
668 -770 -49 0
698 -770 -125 0
728 -770 -75 0
159 -40 -59 0
189 -40 -772 0
219 -40 -80 0
249 -40 -773 0
279 -49 -50 0
309 -49 -772 0
339 -49 -80 0
369 -49 -773 0
399 -125 -50 0
429 -125 -59 0
459 -125 -80 0
489 -125 -773 0
519 -75 -50 0
549 -75 -59 0
579 -75 -772 0
609 -75 -773 0
639 -771 -50 0
669 -771 -59 0
699 -771 -772 0
729 -771 -80 0
160 -50 -95 0
190 -50 -774 0
220 -50 -85 0
250 -50 -775 0
280 -59 -60 0
310 -59 -774 0
340 -59 -85 0
370 -59 -775 0
400 -772 -60 0
430 -772 -95 0
460 -772 -85 0
490 -772 -775 0
520 -80 -60 0
550 -80 -95 0
580 -80 -774 0
610 -80 -775 0
640 -773 -60 0
670 -773 -95 0
700 -773 -774 0
730 -773 -85 0
-131 1 0
-131 2 0
-161 1 0
-161 106 0
-191 1 0
-191 96 0
-221 1 0
-221 731 0
-251 86 0
-251 16 0
-281 86 0
-281 106 0
-311 86 0
-311 96 0
-341 86 0
-341 731 0
-371 101 0
-371 16 0
-401 101 0
-401 2 0
-431 101 0
-431 96 0
-461 101 0
-461 731 0
-491 126 0
-491 16 0
-521 126 0
-521 2 0
-551 126 0
-551 106 0
-581 126 0
-581 731 0
-611 732 0
-611 16 0
-641 732 0
-641 2 0
-671 732 0
-671 106 0
-701 732 0
-701 96 0
-132 16 0
-132 17 0
-162 16 0
-162 111 0
-192 16 0
-192 61 0
-222 16 0
-222 733 0
-252 2 0
-252 3 0
-282 2 0
-282 111 0
-312 2 0
-312 61 0
-342 2 0
-342 733 0
-372 106 0
-372 3 0
-402 106 0
-402 17 0
-432 106 0
-432 61 0
-462 106 0
-462 733 0
-492 96 0
-492 3 0
-522 96 0
-522 17 0
-552 96 0
-552 111 0
-582 96 0
-582 733 0
-612 731 0
-612 3 0
-642 731 0
-642 17 0
-672 731 0
-672 111 0
-702 731 0
-702 61 0
-133 3 0
-133 31 0
-163 3 0
-163 116 0
-193 3 0
-193 66 0
-223 3 0
-223 734 0
-253 17 0
-253 18 0
-283 17 0
-283 116 0
-313 17 0
-313 66 0
-343 17 0
-343 734 0
-373 111 0
-373 18 0
-403 111 0
-403 31 0
-433 111 0
-433 66 0
-463 111 0
-463 734 0
-493 61 0
-493 18 0
-523 61 0
-523 31 0
-553 61 0
-553 116 0
-583 61 0
-583 734 0
-613 733 0
-613 18 0
-643 733 0
-643 31 0
-673 733 0
-673 116 0
-703 733 0
-703 66 0
-134 18 0
-134 41 0
-164 18 0
-164 121 0
-194 18 0
-194 71 0
-224 18 0
-224 735 0
-254 31 0
-254 32 0
-284 31 0
-284 121 0
-314 31 0
-314 71 0
-344 31 0
-344 735 0
-374 116 0
-374 32 0
-404 116 0
-404 41 0
-434 116 0
-434 71 0
-464 116 0
-464 735 0
-494 66 0
-494 32 0
-524 66 0
-524 41 0
-554 66 0
-554 121 0
-584 66 0
-584 735 0
-614 734 0
-614 32 0
-644 734 0
-644 41 0
-674 734 0
-674 121 0
-704 734 0
-704 71 0
-135 32 0
-135 51 0
-165 32 0
-165 736 0
-195 32 0
-195 76 0
-225 32 0
-225 737 0
-255 41 0
-255 42 0
-285 41 0
-285 736 0
-315 41 0
-315 76 0
-345 41 0
-345 737 0
-375 121 0
-375 42 0
-405 121 0
-405 51 0
-435 121 0
-435 76 0
-465 121 0
-465 737 0
-495 71 0
-495 42 0
-525 71 0
-525 51 0
-555 71 0
-555 736 0
-585 71 0
-585 737 0
-615 735 0
-615 42 0
-645 735 0
-645 51 0
-675 735 0
-675 736 0
-705 735 0
-705 76 0
-136 42 0
-136 91 0
-166 42 0
-166 738 0
-196 42 0
-196 81 0
-226 42 0
-226 739 0
-256 51 0
-256 52 0
-286 51 0
-286 738 0
-316 51 0
-316 81 0
-346 51 0
-346 739 0
-376 736 0
-376 52 0
-406 736 0
-406 91 0
-436 736 0
-436 81 0
-466 736 0
-466 739 0
-496 76 0
-496 52 0
-526 76 0
-526 91 0
-556 76 0
-556 738 0
-586 76 0
-586 739 0
-616 737 0
-616 52 0
-646 737 0
-646 91 0
-676 737 0
-676 738 0
-706 737 0
-706 81 0
-137 4 0
-137 5 0
-167 4 0
-167 107 0
-197 4 0
-197 97 0
-227 4 0
-227 740 0
-257 87 0
-257 19 0
-287 87 0
-287 107 0
-317 87 0
-317 97 0
-347 87 0
-347 740 0
-377 102 0
-377 19 0
-407 102 0
-407 5 0
-437 102 0
-437 97 0
-467 102 0
-467 740 0
-497 127 0
-497 19 0
-527 127 0
-527 5 0
-557 127 0
-557 107 0
-587 127 0
-587 740 0
-617 741 0
-617 19 0
-647 741 0
-647 5 0
-677 741 0
-677 107 0
-707 741 0
-707 97 0
-138 19 0
-138 20 0
-168 19 0
-168 112 0
-198 19 0
-198 62 0
-228 19 0
-228 742 0
-258 5 0
-258 6 0
-288 5 0
-288 112 0
-318 5 0
-318 62 0
-348 5 0
-348 742 0
-378 107 0
-378 6 0
-408 107 0
-408 20 0
-438 107 0
-438 62 0
-468 107 0
-468 742 0
-498 97 0
-498 6 0
-528 97 0
-528 20 0
-558 97 0
-558 112 0
-588 97 0
-588 742 0
-618 740 0
-618 6 0
-648 740 0
-648 20 0
-678 740 0
-678 112 0
-708 740 0
-708 62 0
-139 6 0
-139 33 0
-169 6 0
-169 117 0
-199 6 0
-199 67 0
-229 6 0
-229 743 0
-259 20 0
-259 21 0
-289 20 0
-289 117 0
-319 20 0
-319 67 0
-349 20 0
-349 743 0
-379 112 0
-379 21 0
-409 112 0
-409 33 0
-439 112 0
-439 67 0
-469 112 0
-469 743 0
-499 62 0
-499 21 0
-529 62 0
-529 33 0
-559 62 0
-559 117 0
-589 62 0
-589 743 0
-619 742 0
-619 21 0
-649 742 0
-649 33 0
-679 742 0
-679 117 0
-709 742 0
-709 67 0
-140 21 0
-140 43 0
-170 21 0
-170 122 0
-200 21 0
-200 72 0
-230 21 0
-230 744 0
-260 33 0
-260 34 0
-290 33 0
-290 122 0
-320 33 0
-320 72 0
-350 33 0
-350 744 0
-380 117 0
-380 34 0
-410 117 0
-410 43 0
-440 117 0
-440 72 0
-470 117 0
-470 744 0
-500 67 0
-500 34 0
-530 67 0
-530 43 0
-560 67 0
-560 122 0
-590 67 0
-590 744 0
-620 743 0
-620 34 0
-650 743 0
-650 43 0
-680 743 0
-680 122 0
-710 743 0
-710 72 0
-141 34 0
-141 53 0
-171 34 0
-171 745 0
-201 34 0
-201 77 0
-231 34 0
-231 746 0
-261 43 0
-261 44 0
-291 43 0
-291 745 0
-321 43 0
-321 77 0
-351 43 0
-351 746 0
-381 122 0
-381 44 0
-411 122 0
-411 53 0
-441 122 0
-441 77 0
-471 122 0
-471 746 0
-501 72 0
-501 44 0
-531 72 0
-531 53 0
-561 72 0
-561 745 0
-591 72 0
-591 746 0
-621 744 0
-621 44 0
-651 744 0
-651 53 0
-681 744 0
-681 745 0
-711 744 0
-711 77 0
-142 44 0
-142 92 0
-172 44 0
-172 747 0
-202 44 0
-202 82 0
-232 44 0
-232 748 0
-262 53 0
-262 54 0
-292 53 0
-292 747 0
-322 53 0
-322 82 0
-352 53 0
-352 748 0
-382 745 0
-382 54 0
-412 745 0
-412 92 0
-442 745 0
-442 82 0
-472 745 0
-472 748 0
-502 77 0
-502 54 0
-532 77 0
-532 92 0
-562 77 0
-562 747 0
-592 77 0
-592 748 0
-622 746 0
-622 54 0
-652 746 0
-652 92 0
-682 746 0
-682 747 0
-712 746 0
-712 82 0
-143 7 0
-143 8 0
-173 7 0
-173 108 0
-203 7 0
-203 98 0
-233 7 0
-233 749 0
-263 88 0
-263 22 0
-293 88 0
-293 108 0
-323 88 0
-323 98 0
-353 88 0
-353 749 0
-383 103 0
-383 22 0
-413 103 0
-413 8 0
-443 103 0
-443 98 0
-473 103 0
-473 749 0
-503 128 0
-503 22 0
-533 128 0
-533 8 0
-563 128 0
-563 108 0
-593 128 0
-593 749 0
-623 750 0
-623 22 0
-653 750 0
-653 8 0
-683 750 0
-683 108 0
-713 750 0
-713 98 0
-144 22 0
-144 23 0
-174 22 0
-174 113 0
-204 22 0
-204 63 0
-234 22 0
-234 751 0
-264 8 0
-264 9 0
-294 8 0
-294 113 0
-324 8 0
-324 63 0
-354 8 0
-354 751 0
-384 108 0
-384 9 0
-414 108 0
-414 23 0
-444 108 0
-444 63 0
-474 108 0
-474 751 0
-504 98 0
-504 9 0
-534 98 0
-534 23 0
-564 98 0
-564 113 0
-594 98 0
-594 751 0
-624 749 0
-624 9 0
-654 749 0
-654 23 0
-684 749 0
-684 113 0
-714 749 0
-714 63 0
-145 9 0
-145 35 0
-175 9 0
-175 118 0
-205 9 0
-205 68 0
-235 9 0
-235 752 0
-265 23 0
-265 24 0
-295 23 0
-295 118 0
-325 23 0
-325 68 0
-355 23 0
-355 752 0
-385 113 0
-385 24 0
-415 113 0
-415 35 0
-445 113 0
-445 68 0
-475 113 0
-475 752 0
-505 63 0
-505 24 0
-535 63 0
-535 35 0
-565 63 0
-565 118 0
-595 63 0
-595 752 0
-625 751 0
-625 24 0
-655 751 0
-655 35 0
-685 751 0
-685 118 0
-715 751 0
-715 68 0
-146 24 0
-146 45 0
-176 24 0
-176 123 0
-206 24 0
-206 73 0
-236 24 0
-236 753 0
-266 35 0
-266 36 0
-296 35 0
-296 123 0
-326 35 0
-326 73 0
-356 35 0
-356 753 0
-386 118 0
-386 36 0
-416 118 0
-416 45 0
-446 118 0
-446 73 0
-476 118 0
-476 753 0
-506 68 0
-506 36 0
-536 68 0
-536 45 0
-566 68 0
-566 123 0
-596 68 0
-596 753 0
-626 752 0
-626 36 0
-656 752 0
-656 45 0
-686 752 0
-686 123 0
-716 752 0
-716 73 0
-147 36 0
-147 55 0
-177 36 0
-177 754 0
-207 36 0
-207 78 0
-237 36 0
-237 755 0
-267 45 0
-267 46 0
-297 45 0
-297 754 0
-327 45 0
-327 78 0
-357 45 0
-357 755 0
-387 123 0
-387 46 0
-417 123 0
-417 55 0
-447 123 0
-447 78 0
-477 123 0
-477 755 0
-507 73 0
-507 46 0
-537 73 0
-537 55 0
-567 73 0
-567 754 0
-597 73 0
-597 755 0
-627 753 0
-627 46 0
-657 753 0
-657 55 0
-687 753 0
-687 754 0
-717 753 0
-717 78 0
-148 46 0
-148 93 0
-178 46 0
-178 756 0
-208 46 0
-208 83 0
-238 46 0
-238 757 0
-268 55 0
-268 56 0
-298 55 0
-298 756 0
-328 55 0
-328 83 0
-358 55 0
-358 757 0
-388 754 0
-388 56 0
-418 754 0
-418 93 0
-448 754 0
-448 83 0
-478 754 0
-478 757 0
-508 78 0
-508 56 0
-538 78 0
-538 93 0
-568 78 0
-568 756 0
-598 78 0
-598 757 0
-628 755 0
-628 56 0
-658 755 0
-658 93 0
-688 755 0
-688 756 0
-718 755 0
-718 83 0
-149 10 0
-149 11 0
-179 10 0
-179 109 0
-209 10 0
-209 99 0
-239 10 0
-239 758 0
-269 89 0
-269 25 0
-299 89 0
-299 109 0
-329 89 0
-329 99 0
-359 89 0
-359 758 0
-389 104 0
-389 25 0
-419 104 0
-419 11 0
-449 104 0
-449 99 0
-479 104 0
-479 758 0
-509 129 0
-509 25 0
-539 129 0
-539 11 0
-569 129 0
-569 109 0
-599 129 0
-599 758 0
-629 759 0
-629 25 0
-659 759 0
-659 11 0
-689 759 0
-689 109 0
-719 759 0
-719 99 0
-150 25 0
-150 26 0
-180 25 0
-180 114 0
-210 25 0
-210 64 0
-240 25 0
-240 760 0
-270 11 0
-270 12 0
-300 11 0
-300 114 0
-330 11 0
-330 64 0
-360 11 0
-360 760 0
-390 109 0
-390 12 0
-420 109 0
-420 26 0
-450 109 0
-450 64 0
-480 109 0
-480 760 0
-510 99 0
-510 12 0
-540 99 0
-540 26 0
-570 99 0
-570 114 0
-600 99 0
-600 760 0
-630 758 0
-630 12 0
-660 758 0
-660 26 0
-690 758 0
-690 114 0
-720 758 0
-720 64 0
-151 12 0
-151 37 0
-181 12 0
-181 119 0
-211 12 0
-211 69 0
-241 12 0
-241 761 0
-271 26 0
-271 27 0
-301 26 0
-301 119 0
-331 26 0
-331 69 0
-361 26 0
-361 761 0
-391 114 0
-391 27 0
-421 114 0
-421 37 0
-451 114 0
-451 69 0
-481 114 0
-481 761 0
-511 64 0
-511 27 0
-541 64 0
-541 37 0
-571 64 0
-571 119 0
-601 64 0
-601 761 0
-631 760 0
-631 27 0
-661 760 0
-661 37 0
-691 760 0
-691 119 0
-721 760 0
-721 69 0
-152 27 0
-152 47 0
-182 27 0
-182 124 0
-212 27 0
-212 74 0
-242 27 0
-242 762 0
-272 37 0
-272 38 0
-302 37 0
-302 124 0
-332 37 0
-332 74 0
-362 37 0
-362 762 0
-392 119 0
-392 38 0
-422 119 0
-422 47 0
-452 119 0
-452 74 0
-482 119 0
-482 762 0
-512 69 0
-512 38 0
-542 69 0
-542 47 0
-572 69 0
-572 124 0
-602 69 0
-602 762 0
-632 761 0
-632 38 0
-662 761 0
-662 47 0
-692 761 0
-692 124 0
-722 761 0
-722 74 0
-153 38 0
-153 57 0
-183 38 0
-183 763 0
-213 38 0
-213 79 0
-243 38 0
-243 764 0
-273 47 0
-273 48 0
-303 47 0
-303 763 0
-333 47 0
-333 79 0
-363 47 0
-363 764 0
-393 124 0
-393 48 0
-423 124 0
-423 57 0
-453 124 0
-453 79 0
-483 124 0
-483 764 0
-513 74 0
-513 48 0
-543 74 0
-543 57 0
-573 74 0
-573 763 0
-603 74 0
-603 764 0
-633 762 0
-633 48 0
-663 762 0
-663 57 0
-693 762 0
-693 763 0
-723 762 0
-723 79 0
-154 48 0
-154 94 0
-184 48 0
-184 765 0
-214 48 0
-214 84 0
-244 48 0
-244 766 0
-274 57 0
-274 58 0
-304 57 0
-304 765 0
-334 57 0
-334 84 0
-364 57 0
-364 766 0
-394 763 0
-394 58 0
-424 763 0
-424 94 0
-454 763 0
-454 84 0
-484 763 0
-484 766 0
-514 79 0
-514 58 0
-544 79 0
-544 94 0
-574 79 0
-574 765 0
-604 79 0
-604 766 0
-634 764 0
-634 58 0
-664 764 0
-664 94 0
-694 764 0
-694 765 0
-724 764 0
-724 84 0
-155 13 0
-155 14 0
-185 13 0
-185 110 0
-215 13 0
-215 100 0
-245 13 0
-245 767 0
-275 90 0
-275 28 0
-305 90 0
-305 110 0
-335 90 0
-335 100 0
-365 90 0
-365 767 0
-395 105 0
-395 28 0
-425 105 0
-425 14 0
-455 105 0
-455 100 0
-485 105 0
-485 767 0
-515 130 0
-515 28 0
-545 130 0
-545 14 0
-575 130 0
-575 110 0
-605 130 0
-605 767 0
-635 768 0
-635 28 0
-665 768 0
-665 14 0
-695 768 0
-695 110 0
-725 768 0
-725 100 0
-156 28 0
-156 29 0
-186 28 0
-186 115 0
-216 28 0
-216 65 0
-246 28 0
-246 769 0
-276 14 0
-276 15 0
-306 14 0
-306 115 0
-336 14 0
-336 65 0
-366 14 0
-366 769 0
-396 110 0
-396 15 0
-426 110 0
-426 29 0
-456 110 0
-456 65 0
-486 110 0
-486 769 0
-516 100 0
-516 15 0
-546 100 0
-546 29 0
-576 100 0
-576 115 0
-606 100 0
-606 769 0
-636 767 0
-636 15 0
-666 767 0
-666 29 0
-696 767 0
-696 115 0
-726 767 0
-726 65 0
-157 15 0
-157 39 0
-187 15 0
-187 120 0
-217 15 0
-217 70 0
-247 15 0
-247 770 0
-277 29 0
-277 30 0
-307 29 0
-307 120 0
-337 29 0
-337 70 0
-367 29 0
-367 770 0
-397 115 0
-397 30 0
-427 115 0
-427 39 0
-457 115 0
-457 70 0
-487 115 0
-487 770 0
-517 65 0
-517 30 0
-547 65 0
-547 39 0
-577 65 0
-577 120 0
-607 65 0
-607 770 0
-637 769 0
-637 30 0
-667 769 0
-667 39 0
-697 769 0
-697 120 0
-727 769 0
-727 70 0
-158 30 0
-158 49 0
-188 30 0
-188 125 0
-218 30 0
-218 75 0
-248 30 0
-248 771 0
-278 39 0
-278 40 0
-308 39 0
-308 125 0
-338 39 0
-338 75 0
-368 39 0
-368 771 0
-398 120 0
-398 40 0
-428 120 0
-428 49 0
-458 120 0
-458 75 0
-488 120 0
-488 771 0
-518 70 0
-518 40 0
-548 70 0
-548 49 0
-578 70 0
-578 125 0
-608 70 0
-608 771 0
-638 770 0
-638 40 0
-668 770 0
-668 49 0
-698 770 0
-698 125 0
-728 770 0
-728 75 0
-159 40 0
-159 59 0
-189 40 0
-189 772 0
-219 40 0
-219 80 0
-249 40 0
-249 773 0
-279 49 0
-279 50 0
-309 49 0
-309 772 0
-339 49 0
-339 80 0
-369 49 0
-369 773 0
-399 125 0
-399 50 0
-429 125 0
-429 59 0
-459 125 0
-459 80 0
-489 125 0
-489 773 0
-519 75 0
-519 50 0
-549 75 0
-549 59 0
-579 75 0
-579 772 0
-609 75 0
-609 773 0
-639 771 0
-639 50 0
-669 771 0
-669 59 0
-699 771 0
-699 772 0
-729 771 0
-729 80 0
-160 50 0
-160 95 0
-190 50 0
-190 774 0
-220 50 0
-220 85 0
-250 50 0
-250 775 0
-280 59 0
-280 60 0
-310 59 0
-310 774 0
-340 59 0
-340 85 0
-370 59 0
-370 775 0
-400 772 0
-400 60 0
-430 772 0
-430 95 0
-460 772 0
-460 85 0
-490 772 0
-490 775 0
-520 80 0
-520 60 0
-550 80 0
-550 95 0
-580 80 0
-580 774 0
-610 80 0
-610 775 0
-640 773 0
-640 60 0
-670 773 0
-670 95 0
-700 773 0
-700 774 0
-730 773 0
-730 85 0
1 86 101 126 732 0
-1 -86 0
-1 -101 0
-1 -126 0
-1 -732 0
-86 -101 0
-86 -126 0
-86 -732 0
-101 -126 0
-101 -732 0
-126 -732 0
16 2 106 96 731 0
-16 -2 0
-16 -106 0
-16 -96 0
-16 -731 0
-2 -106 0
-2 -96 0
-2 -731 0
-106 -96 0
-106 -731 0
-96 -731 0
3 17 111 61 733 0
-3 -17 0
-3 -111 0
-3 -61 0
-3 -733 0
-17 -111 0
-17 -61 0
-17 -733 0
-111 -61 0
-111 -733 0
-61 -733 0
18 31 116 66 734 0
-18 -31 0
-18 -116 0
-18 -66 0
-18 -734 0
-31 -116 0
-31 -66 0
-31 -734 0
-116 -66 0
-116 -734 0
-66 -734 0
32 41 121 71 735 0
-32 -41 0
-32 -121 0
-32 -71 0
-32 -735 0
-41 -121 0
-41 -71 0
-41 -735 0
-121 -71 0
-121 -735 0
-71 -735 0
42 51 736 76 737 0
-42 -51 0
-42 -736 0
-42 -76 0
-42 -737 0
-51 -736 0
-51 -76 0
-51 -737 0
-736 -76 0
-736 -737 0
-76 -737 0
52 91 738 81 739 0
-52 -91 0
-52 -738 0
-52 -81 0
-52 -739 0
-91 -738 0
-91 -81 0
-91 -739 0
-738 -81 0
-738 -739 0
-81 -739 0
4 87 102 127 741 0
-4 -87 0
-4 -102 0
-4 -127 0
-4 -741 0
-87 -102 0
-87 -127 0
-87 -741 0
-102 -127 0
-102 -741 0
-127 -741 0
19 5 107 97 740 0
-19 -5 0
-19 -107 0
-19 -97 0
-19 -740 0
-5 -107 0
-5 -97 0
-5 -740 0
-107 -97 0
-107 -740 0
-97 -740 0
6 20 112 62 742 0
-6 -20 0
-6 -112 0
-6 -62 0
-6 -742 0
-20 -112 0
-20 -62 0
-20 -742 0
-112 -62 0
-112 -742 0
-62 -742 0
21 33 117 67 743 0
-21 -33 0
-21 -117 0
-21 -67 0
-21 -743 0
-33 -117 0
-33 -67 0
-33 -743 0
-117 -67 0
-117 -743 0
-67 -743 0
34 43 122 72 744 0
-34 -43 0
-34 -122 0
-34 -72 0
-34 -744 0
-43 -122 0
-43 -72 0
-43 -744 0
-122 -72 0
-122 -744 0
-72 -744 0
44 53 745 77 746 0
-44 -53 0
-44 -745 0
-44 -77 0
-44 -746 0
-53 -745 0
-53 -77 0
-53 -746 0
-745 -77 0
-745 -746 0
-77 -746 0
54 92 747 82 748 0
-54 -92 0
-54 -747 0
-54 -82 0
-54 -748 0
-92 -747 0
-92 -82 0
-92 -748 0
-747 -82 0
-747 -748 0
-82 -748 0
7 88 103 128 750 0
-7 -88 0
-7 -103 0
-7 -128 0
-7 -750 0
-88 -103 0
-88 -128 0
-88 -750 0
-103 -128 0
-103 -750 0
-128 -750 0
22 8 108 98 749 0
-22 -8 0
-22 -108 0
-22 -98 0
-22 -749 0
-8 -108 0
-8 -98 0
-8 -749 0
-108 -98 0
-108 -749 0
-98 -749 0
9 23 113 63 751 0
-9 -23 0
-9 -113 0
-9 -63 0
-9 -751 0
-23 -113 0
-23 -63 0
-23 -751 0
-113 -63 0
-113 -751 0
-63 -751 0
24 35 118 68 752 0
-24 -35 0
-24 -118 0
-24 -68 0
-24 -752 0
-35 -118 0
-35 -68 0
-35 -752 0
-118 -68 0
-118 -752 0
-68 -752 0
36 45 123 73 753 0
-36 -45 0
-36 -123 0
-36 -73 0
-36 -753 0
-45 -123 0
-45 -73 0
-45 -753 0
-123 -73 0
-123 -753 0
-73 -753 0
46 55 754 78 755 0
-46 -55 0
-46 -754 0
-46 -78 0
-46 -755 0
-55 -754 0
-55 -78 0
-55 -755 0
-754 -78 0
-754 -755 0
-78 -755 0
56 93 756 83 757 0
-56 -93 0
-56 -756 0
-56 -83 0
-56 -757 0
-93 -756 0
-93 -83 0
-93 -757 0
-756 -83 0
-756 -757 0
-83 -757 0
10 89 104 129 759 0
-10 -89 0
-10 -104 0
-10 -129 0
-10 -759 0
-89 -104 0
-89 -129 0
-89 -759 0
-104 -129 0
-104 -759 0
-129 -759 0
25 11 109 99 758 0
-25 -11 0
-25 -109 0
-25 -99 0
-25 -758 0
-11 -109 0
-11 -99 0
-11 -758 0
-109 -99 0
-109 -758 0
-99 -758 0
12 26 114 64 760 0
-12 -26 0
-12 -114 0
-12 -64 0
-12 -760 0
-26 -114 0
-26 -64 0
-26 -760 0
-114 -64 0
-114 -760 0
-64 -760 0
27 37 119 69 761 0
-27 -37 0
-27 -119 0
-27 -69 0
-27 -761 0
-37 -119 0
-37 -69 0
-37 -761 0
-119 -69 0
-119 -761 0
-69 -761 0
38 47 124 74 762 0
-38 -47 0
-38 -124 0
-38 -74 0
-38 -762 0
-47 -124 0
-47 -74 0
-47 -762 0
-124 -74 0
-124 -762 0
-74 -762 0
48 57 763 79 764 0
-48 -57 0
-48 -763 0
-48 -79 0
-48 -764 0
-57 -763 0
-57 -79 0
-57 -764 0
-763 -79 0
-763 -764 0
-79 -764 0
58 94 765 84 766 0
-58 -94 0
-58 -765 0
-58 -84 0
-58 -766 0
-94 -765 0
-94 -84 0
-94 -766 0
-765 -84 0
-765 -766 0
-84 -766 0
13 90 105 130 768 0
-13 -90 0
-13 -105 0
-13 -130 0
-13 -768 0
-90 -105 0
-90 -130 0
-90 -768 0
-105 -130 0
-105 -768 0
-130 -768 0
28 14 110 100 767 0
-28 -14 0
-28 -110 0
-28 -100 0
-28 -767 0
-14 -110 0
-14 -100 0
-14 -767 0
-110 -100 0
-110 -767 0
-100 -767 0
15 29 115 65 769 0
-15 -29 0
-15 -115 0
-15 -65 0
-15 -769 0
-29 -115 0
-29 -65 0
-29 -769 0
-115 -65 0
-115 -769 0
-65 -769 0
30 39 120 70 770 0
-30 -39 0
-30 -120 0
-30 -70 0
-30 -770 0
-39 -120 0
-39 -70 0
-39 -770 0
-120 -70 0
-120 -770 0
-70 -770 0
40 49 125 75 771 0
-40 -49 0
-40 -125 0
-40 -75 0
-40 -771 0
-49 -125 0
-49 -75 0
-49 -771 0
-125 -75 0
-125 -771 0
-75 -771 0
50 59 772 80 773 0
-50 -59 0
-50 -772 0
-50 -80 0
-50 -773 0
-59 -772 0
-59 -80 0
-59 -773 0
-772 -80 0
-772 -773 0
-80 -773 0
60 95 774 85 775 0
-60 -95 0
-60 -774 0
-60 -85 0
-60 -775 0
-95 -774 0
-95 -85 0
-95 -775 0
-774 -85 0
-774 -775 0
-85 -775 0
1 4 7 10 13 0
-1 -4 0
-1 -7 0
-1 -10 0
-1 -13 0
-4 -7 0
-4 -10 0
-4 -13 0
-7 -10 0
-7 -13 0
-10 -13 0
86 87 88 89 90 0
-86 -87 0
-86 -88 0
-86 -89 0
-86 -90 0
-87 -88 0
-87 -89 0
-87 -90 0
-88 -89 0
-88 -90 0
-89 -90 0
101 102 103 104 105 0
-101 -102 0
-101 -103 0
-101 -104 0
-101 -105 0
-102 -103 0
-102 -104 0
-102 -105 0
-103 -104 0
-103 -105 0
-104 -105 0
126 127 128 129 130 0
-126 -127 0
-126 -128 0
-126 -129 0
-126 -130 0
-127 -128 0
-127 -129 0
-127 -130 0
-128 -129 0
-128 -130 0
-129 -130 0
732 741 750 759 768 0
-732 -741 0
-732 -750 0
-732 -759 0
-732 -768 0
-741 -750 0
-741 -759 0
-741 -768 0
-750 -759 0
-750 -768 0
-759 -768 0
16 19 22 25 28 0
-16 -19 0
-16 -22 0
-16 -25 0
-16 -28 0
-19 -22 0
-19 -25 0
-19 -28 0
-22 -25 0
-22 -28 0
-25 -28 0
2 5 8 11 14 0
-2 -5 0
-2 -8 0
-2 -11 0
-2 -14 0
-5 -8 0
-5 -11 0
-5 -14 0
-8 -11 0
-8 -14 0
-11 -14 0
106 107 108 109 110 0
-106 -107 0
-106 -108 0
-106 -109 0
-106 -110 0
-107 -108 0
-107 -109 0
-107 -110 0
-108 -109 0
-108 -110 0
-109 -110 0
96 97 98 99 100 0
-96 -97 0
-96 -98 0
-96 -99 0
-96 -100 0
-97 -98 0
-97 -99 0
-97 -100 0
-98 -99 0
-98 -100 0
-99 -100 0
731 740 749 758 767 0
-731 -740 0
-731 -749 0
-731 -758 0
-731 -767 0
-740 -749 0
-740 -758 0
-740 -767 0
-749 -758 0
-749 -767 0
-758 -767 0
3 6 9 12 15 0
-3 -6 0
-3 -9 0
-3 -12 0
-3 -15 0
-6 -9 0
-6 -12 0
-6 -15 0
-9 -12 0
-9 -15 0
-12 -15 0
17 20 23 26 29 0
-17 -20 0
-17 -23 0
-17 -26 0
-17 -29 0
-20 -23 0
-20 -26 0
-20 -29 0
-23 -26 0
-23 -29 0
-26 -29 0
111 112 113 114 115 0
-111 -112 0
-111 -113 0
-111 -114 0
-111 -115 0
-112 -113 0
-112 -114 0
-112 -115 0
-113 -114 0
-113 -115 0
-114 -115 0
61 62 63 64 65 0
-61 -62 0
-61 -63 0
-61 -64 0
-61 -65 0
-62 -63 0
-62 -64 0
-62 -65 0
-63 -64 0
-63 -65 0
-64 -65 0
733 742 751 760 769 0
-733 -742 0
-733 -751 0
-733 -760 0
-733 -769 0
-742 -751 0
-742 -760 0
-742 -769 0
-751 -760 0
-751 -769 0
-760 -769 0
18 21 24 27 30 0
-18 -21 0
-18 -24 0
-18 -27 0
-18 -30 0
-21 -24 0
-21 -27 0
-21 -30 0
-24 -27 0
-24 -30 0
-27 -30 0
31 33 35 37 39 0
-31 -33 0
-31 -35 0
-31 -37 0
-31 -39 0
-33 -35 0
-33 -37 0
-33 -39 0
-35 -37 0
-35 -39 0
-37 -39 0
116 117 118 119 120 0
-116 -117 0
-116 -118 0
-116 -119 0
-116 -120 0
-117 -118 0
-117 -119 0
-117 -120 0
-118 -119 0
-118 -120 0
-119 -120 0
66 67 68 69 70 0
-66 -67 0
-66 -68 0
-66 -69 0
-66 -70 0
-67 -68 0
-67 -69 0
-67 -70 0
-68 -69 0
-68 -70 0
-69 -70 0
734 743 752 761 770 0
-734 -743 0
-734 -752 0
-734 -761 0
-734 -770 0
-743 -752 0
-743 -761 0
-743 -770 0
-752 -761 0
-752 -770 0
-761 -770 0
32 34 36 38 40 0
-32 -34 0
-32 -36 0
-32 -38 0
-32 -40 0
-34 -36 0
-34 -38 0
-34 -40 0
-36 -38 0
-36 -40 0
-38 -40 0
41 43 45 47 49 0
-41 -43 0
-41 -45 0
-41 -47 0
-41 -49 0
-43 -45 0
-43 -47 0
-43 -49 0
-45 -47 0
-45 -49 0
-47 -49 0
121 122 123 124 125 0
-121 -122 0
-121 -123 0
-121 -124 0
-121 -125 0
-122 -123 0
-122 -124 0
-122 -125 0
-123 -124 0
-123 -125 0
-124 -125 0
71 72 73 74 75 0
-71 -72 0
-71 -73 0
-71 -74 0
-71 -75 0
-72 -73 0
-72 -74 0
-72 -75 0
-73 -74 0
-73 -75 0
-74 -75 0
735 744 753 762 771 0
-735 -744 0
-735 -753 0
-735 -762 0
-735 -771 0
-744 -753 0
-744 -762 0
-744 -771 0
-753 -762 0
-753 -771 0
-762 -771 0
42 44 46 48 50 0
-42 -44 0
-42 -46 0
-42 -48 0
-42 -50 0
-44 -46 0
-44 -48 0
-44 -50 0
-46 -48 0
-46 -50 0
-48 -50 0
51 53 55 57 59 0
-51 -53 0
-51 -55 0
-51 -57 0
-51 -59 0
-53 -55 0
-53 -57 0
-53 -59 0
-55 -57 0
-55 -59 0
-57 -59 0
736 745 754 763 772 0
-736 -745 0
-736 -754 0
-736 -763 0
-736 -772 0
-745 -754 0
-745 -763 0
-745 -772 0
-754 -763 0
-754 -772 0
-763 -772 0
76 77 78 79 80 0
-76 -77 0
-76 -78 0
-76 -79 0
-76 -80 0
-77 -78 0
-77 -79 0
-77 -80 0
-78 -79 0
-78 -80 0
-79 -80 0
737 746 755 764 773 0
-737 -746 0
-737 -755 0
-737 -764 0
-737 -773 0
-746 -755 0
-746 -764 0
-746 -773 0
-755 -764 0
-755 -773 0
-764 -773 0
52 54 56 58 60 0
-52 -54 0
-52 -56 0
-52 -58 0
-52 -60 0
-54 -56 0
-54 -58 0
-54 -60 0
-56 -58 0
-56 -60 0
-58 -60 0
91 92 93 94 95 0
-91 -92 0
-91 -93 0
-91 -94 0
-91 -95 0
-92 -93 0
-92 -94 0
-92 -95 0
-93 -94 0
-93 -95 0
-94 -95 0
738 747 756 765 774 0
-738 -747 0
-738 -756 0
-738 -765 0
-738 -774 0
-747 -756 0
-747 -765 0
-747 -774 0
-756 -765 0
-756 -774 0
-765 -774 0
81 82 83 84 85 0
-81 -82 0
-81 -83 0
-81 -84 0
-81 -85 0
-82 -83 0
-82 -84 0
-82 -85 0
-83 -84 0
-83 -85 0
-84 -85 0
739 748 757 766 775 0
-739 -748 0
-739 -757 0
-739 -766 0
-739 -775 0
-748 -757 0
-748 -766 0
-748 -775 0
-757 -766 0
-757 -775 0
-766 -775 0
-1 -16 0
-86 -2 0
-101 -106 0
-126 -96 0
-732 -731 0
-4 -19 0
-87 -5 0
-102 -107 0
-127 -97 0
-741 -740 0
-7 -22 0
-88 -8 0
-103 -108 0
-128 -98 0
-750 -749 0
-10 -25 0
-89 -11 0
-104 -109 0
-129 -99 0
-759 -758 0
-13 -28 0
-90 -14 0
-105 -110 0
-130 -100 0
-768 -767 0
-16 -3 0
-2 -17 0
-106 -111 0
-96 -61 0
-731 -733 0
-19 -6 0
-5 -20 0
-107 -112 0
-97 -62 0
-740 -742 0
-22 -9 0
-8 -23 0
-108 -113 0
-98 -63 0
-749 -751 0
-25 -12 0
-11 -26 0
-109 -114 0
-99 -64 0
-758 -760 0
-28 -15 0
-14 -29 0
-110 -115 0
-100 -65 0
-767 -769 0
-3 -18 0
-17 -31 0
-111 -116 0
-61 -66 0
-733 -734 0
-6 -21 0
-20 -33 0
-112 -117 0
-62 -67 0
-742 -743 0
-9 -24 0
-23 -35 0
-113 -118 0
-63 -68 0
-751 -752 0
-12 -27 0
-26 -37 0
-114 -119 0
-64 -69 0
-760 -761 0
-15 -30 0
-29 -39 0
-115 -120 0
-65 -70 0
-769 -770 0
-18 -32 0
-31 -41 0
-116 -121 0
-66 -71 0
-734 -735 0
-21 -34 0
-33 -43 0
-117 -122 0
-67 -72 0
-743 -744 0
-24 -36 0
-35 -45 0
-118 -123 0
-68 -73 0
-752 -753 0
-27 -38 0
-37 -47 0
-119 -124 0
-69 -74 0
-761 -762 0
-30 -40 0
-39 -49 0
-120 -125 0
-70 -75 0
-770 -771 0
-32 -42 0
-41 -51 0
-121 -736 0
-71 -76 0
-735 -737 0
-34 -44 0
-43 -53 0
-122 -745 0
-72 -77 0
-744 -746 0
-36 -46 0
-45 -55 0
-123 -754 0
-73 -78 0
-753 -755 0
-38 -48 0
-47 -57 0
-124 -763 0
-74 -79 0
-762 -764 0
-40 -50 0
-49 -59 0
-125 -772 0
-75 -80 0
-771 -773 0
-42 -52 0
-51 -91 0
-736 -738 0
-76 -81 0
-737 -739 0
-44 -54 0
-53 -92 0
-745 -747 0
-77 -82 0
-746 -748 0
-46 -56 0
-55 -93 0
-754 -756 0
-78 -83 0
-755 -757 0
-48 -58 0
-57 -94 0
-763 -765 0
-79 -84 0
-764 -766 0
-50 -60 0
-59 -95 0
-772 -774 0
-80 -85 0
-773 -775 0
